instances/shortest_path/discrete/shortest_path_5_6.kp
6240
98

[0.8316912848438669 0.7514209382132558 1.6371633575500983 5.364347022567885 2.036962864605411 1.622843100245507 4.24532241068071 0.10372846019417027 3.1630134623454547 6.0511435529082505 4.0787294373004555 5.86040453630977 3.5590571653093184 3.55709571443018 4.807493683639306 1.1782496725018583]

[3 95 73 42 91 81 84 95 36 33 55 98 55 39 20 60]
